data/benchmarks/bayes/75-10-7-q.cnf
p cnf 460 463
c weights 0.408956 0.591044 1 1 1 1 1 1 1 1 1 1 1 1 1 1 1 1 1 1 1 1 1 1 1 1 1 1 1 1 1 1 1 1 1 1 1 1 1 1 1 1 1 1 1 1 1 1 1 1 1 1 1 1 1 1 1 1 1 1 1 1 1 1 1 1 1 1 1 1 1 1 1 1 1 1 1 1 1 1 1 1 1 1 1 1 1 1 1 1 1 1 1 1 1 1 1 1 1 1 1 1 1 1 1 1 1 1 1 1 1 1 1 1 1 1 1 1 1 1 1 1 1 1 1 1 1 1 1 1 1 1 1 1 1 1 1 1 1 1 1 1 1 1 1 1 1 1 1 1 1 1 1 1 1 1 1 1 1 1 1 1 1 1 1 1 1 1 1 1 1 1 1 1 1 1 1 1 1 1 1 1 1 1 1 1 1 1 1 1 1 1 1 1 1 1 1 1 1 1 0.5 0.5 0.5 0.5 0.5 0.5 0.5 0.5 0.5 0.5 0.5 0.5 0.5 0.5 0.5 0.5 0.5 0.5 0.5 0.5 0.5 0.5 0.5 0.5 0.5 0.5 0.5 0.5 0.5 0.5 0.5 0.5 0.5 0.5 0.5 0.5 0.5 0.5 0.5 0.5 0.5 0.5 0.5 0.5 0.5 0.5 0.5 0.5 0.5 0.5 0.5 0.5 0.5 0.5 0.5 0.5 0.5 0.5 0.5 0.5 0.5 0.5 0.5 0.5 0.5 0.5 0.5 0.5 0.5 0.5 0.5 0.5 0.5 0.5 0.5 0.5 0.5 0.5 0.5 0.5 0.5 0.5 0.5 0.5 0.5 0.5 0.5 0.5 0.812689 0.187311 0.112664 0.887336 0.466838 0.533162 0.655016 0.34498399999999996 0.5 0.5 0.5 0.5 0.5 0.5 0.5 0.5 0.5 0.5 0.5 0.5 0.5 0.5 0.5 0.5 0.5 0.5 0.5 0.5 0.5 0.5 0.5 0.5 0.5 0.5 0.5 0.5 0.5 0.5 0.5 0.5 0.5 0.5 0.5 0.5 0.5 0.5 0.5 0.5 0.5 0.5 0.5 0.5 0.5 0.5 0.5 0.5 0.5 0.5 0.5 0.5 0.367514 0.632486 0.107672 0.892328 0.224668 0.775332 0.401761 0.598239 0.5 0.5 0.5 0.5 0.5 0.5 0.5 0.5 0.157003 0.842997 0.899962 0.10003799999999996 0.514638 0.48536199999999996 0.681265 0.318735 0.5 0.5 0.5 0.5 0.5 0.5 0.5 0.5 0.428223 0.571777 0.103263 0.896737 0.541448 0.45855199999999996 0.380992 0.619008 0.5 0.5 0.5 0.5 0.5 0.5 0.5 0.5 0.5 0.5 0.5 0.5 0.5 0.5 0.5 0.5 0.5 0.5 0.5 0.5 0.136904 0.863096 0.326266 0.673734 0.525789 0.47421100000000005 0.131541 0.868459 0.5 0.5 0.5 0.5 0.5 0.5 0.5 0.5 0.697731 0.302269 0.653188 0.346812 0.621688 0.378312 0.125954 0.874046 0.163135 0.836865 0.506946 0.493054 0.10203 0.89797 0.26156 0.73844 0.156761 0.843239 0.571978 0.428022 0.972044 0.02795599999999998 0.993407 0.00659299999999996 0.5 0.5 0.5 0.5 0.5 0.5 0.5 0.5 0.466506 0.533494 0.631655 0.36834500000000003 0.346599 0.653401 0.598047 0.401953 0.5 0.5 0.5 0.5 0.5 0.5 0.5 0.5 0.5 0.5 0.5 0.5 0.5 0.5 0.5 0.5 0.5 0.5 0.5 0.5 0.975303 0.02469699999999997 0.574246 0.42575399999999997 0.15037 0.84963 0.928672 0.07132799999999995 0.5 0.5 0.5 0.5 0.5 0.5 0.5 0.5 0.779135 0.22086499999999998 0.301859 0.698141 0.304497 0.695503 0.599944 0.40005599999999997 0.936152 0.06384800000000002 0.946543 0.05345699999999998 0.366412 0.633588 0.0510764 0.9489236 0.5 0.5 0.5 0.5 0.5 0.5 0.5 0.5 0.5 0.5 0.5 0.5 0.5 0.5 0.5 0.5 0.0490069 0.9509931 0.149627 0.850373 0.435442 0.564558 0.199377 0.800623 0.5 0.5 0.5 0.5 0.979017 0.020982999999999974 0.890862 0.10913799999999996 0.893982 0.10601799999999995 0.978125 0.021874999999999978 0.5 0.5 0.5 0.5 0.5 0.5 0.5 0.5 0.5 0.5 0.5 0.5 0.5 0.5 0.5 0.5 0.600385 0.39961500000000005 0.29894 0.70106 0.61447 0.38553000000000004 0.0349075 0.9650925 0.5 0.5 0.5 0.5 0.5 0.5 0.5 0.5 0.5 0.5 0.5 0.5 0.5 0.5 0.5 0.5 0.5 0.5 0.5 0.5 0.5 0.5 0.5 0.5 0.5 0.5 0.5 0.5 0.5 0.5 0.5 0.5 0.5 0.5 0.5 0.5 0.5 0.5 0.5 0.5 0.5 0.5 0.5 0.5 0.5 0.5 0.5 0.5 0.5 0.5 0.5 0.5 0.932275 0.06772500000000004 0.173682 0.826318 0.210054 0.789946 0.261133 0.7388669999999999 0.5 0.5 0.5 0.5 0.5 0.5 0.5 0.5 0.5 0.5 0.5 0.5 0.5 0.5 0.5 0.5 0.5 0.5 0.5 0.5 0.5 0.5 0.5 0.5 0.0669268 0.9330732 0.585447 0.41455299999999995 0.59321 0.40679 0.802858 0.19714200000000004 0.5 0.5 0.5 0.5 0.5 0.5 0.5 0.5 0.5 0.5 0.5 0.5 0.5 0.5 0.5 0.5 0.403234 0.596766 0.948326 0.051674 0.795589 0.204411 0.421989 0.578011 0.5 0.5 0.5 0.5 0.5 0.5 0.5 0.5 0.5 0.5 0.5 0.5 0.5 0.5 0.5 0.5 0.5 0.5 0.5 0.5 0.5 0.5 0.5 0.5 0.5 0.5 0.5 0.5 0.862106 0.13789399999999996 0.182724 0.817276 0.187092 0.812908 0.401745 0.598255 0.5 0.5 0.5 0.5 0.5 0.5 0.5 0.5 0.5 0.5 0.5 0.5 0.5 0.5 0.5 0.5 0.5 0.5 0.5 0.5 0.5 0.5 0.5 0.5 0.694683 0.30531699999999995 0.760207 0.23979300000000003 0.949038 0.05096199999999995 0.181933 0.818067 0.5 0.5 0.5 0.5 0.5 0.5 0.5 0.5 0.5 0.5 0.5 0.5 0.428743 0.571257 0.798021 0.20197900000000002 0.191998 0.808002 0.997352 0.0026479999999999837 0.673659 0.326341 0.421246 0.578754 0.504129 0.49587099999999995 0.103646 0.896354 0.5 0.5 0.5 0.5 0.5 0.5 0.5 0.5 0.5 0.5 0.5 0.5 0.5 0.5 0.5 0.5 0.492551 0.507449 0.405666 0.5943339999999999 0.143529 0.856471 0.738311 0.26168899999999995 0.5 0.5 0.5 0.5 0.5 0.5 0.5 0.5 0.5 0.5 0.5 0.5 0.5 0.5 0.5 0.5 0.5 0.5 0.5 0.5 0.5 0.5 0.5 0.5 0.5 0.5 0.5 0.5 0.5 0.5 0.5 0.5 0.773801 0.22619900000000004 0.825453 0.174547 0.5 0.5 0.5 0.5 0.5 0.5 0.5 0.5 0.774932 0.22506800000000005 0.753312 0.24668800000000002 0.3365 0.6635 0.0474126 0.9525874 0.5 0.5 0.5 0.5 0.5 0.5 0.5 0.5 0.5 0.5 0.5 0.5 0.5 0.5 0.5 0.5 0.5 0.5 0.5 0.5 0.5 0.5 0.5 0.5 0.853761 0.146239 0.479241 0.520759 0.598774 0.40122599999999997 0.627562 0.37243800000000005 0.5 0.5 0.5 0.5 0.5 0.5 0.5 0.5 0.5 0.5 0.5 0.5 0.5 0.5 0.5 0.5 0.5 0.5 0.5 0.5 0.5 0.5 0.5 0.5
-1 2 0
1 -2 0
-2 -3 0
2 3 0
-3 -4 0
3 4 0
-4 5 0
4 -5 0
-5 -6 0
5 6 0
-6 7 0
6 -7 0
-7 -8 0
7 8 0
-8 -9 0
8 9 0
-9 10 0
9 -10 0
-1 11 0
1 -11 0
-11 -2 -12 0
-11 2 12 0
11 -2 12 0
11 2 12 0
-12 -3 -13 0
-12 3 -13 0
12 -3 13 0
12 3 -13 0
-13 -4 -14 0
-13 4 14 0
13 -4 14 0
13 4 -14 0
-14 -5 -15 0
-14 5 -15 0
14 -5 15 0
14 5 15 0
-15 -6 -16 0
-15 6 -16 0
15 -6 16 0
15 6 -16 0
-16 -7 17 0
-16 7 -17 0
16 -7 -17 0
16 7 17 0
-17 -8 -145 18 0
-17 -8 145 -18 0
-17 8 -146 18 0
-17 8 146 -18 0
17 -8 -147 18 0
17 -8 147 -18 0
17 8 -148 18 0
17 8 148 -18 0
-18 -9 -19 0
-18 9 19 0
18 -9 -19 0
18 9 -19 0
-19 -10 -20 0
-19 10 -20 0
19 -10 -20 0
19 10 20 0
-11 -21 0
11 21 0
-21 -12 -22 0
-21 12 22 0
21 -12 -22 0
21 12 -22 0
-22 -13 23 0
-22 13 -23 0
22 -13 -23 0
22 13 -23 0
-23 -14 -24 0
-23 14 24 0
23 -14 -24 0
23 14 24 0
-24 -15 25 0
-24 15 -25 0
24 -15 -25 0
24 15 -25 0
-25 -16 -175 26 0
-25 -16 175 -26 0
-25 16 -176 26 0
-25 16 176 -26 0
25 -16 -177 26 0
25 -16 177 -26 0
25 16 -178 26 0
25 16 178 -26 0
-26 -17 -27 0
-26 17 27 0
26 -17 -27 0
26 17 27 0
-27 -18 -183 28 0
-27 -18 183 -28 0
-27 18 -184 28 0
-27 18 184 -28 0
27 -18 -185 28 0
27 -18 185 -28 0
27 18 -186 28 0
27 18 186 -28 0
-28 -19 -29 0
-28 19 29 0
28 -19 -29 0
28 19 -29 0
-29 -20 -191 30 0
-29 -20 191 -30 0
-29 20 -192 30 0
-29 20 192 -30 0
29 -20 -193 30 0
29 -20 193 -30 0
29 20 -194 30 0
29 20 194 -30 0
-21 -31 0
21 31 0
-31 -22 -32 0
-31 22 32 0
31 -22 32 0
31 22 -32 0
-32 -23 -33 0
-32 23 33 0
32 -23 33 0
32 23 -33 0
-33 -24 -205 34 0
-33 -24 205 -34 0
-33 24 -206 34 0
-33 24 206 -34 0
33 -24 -207 34 0
33 -24 207 -34 0
33 24 -208 34 0
33 24 208 -34 0
-34 -25 -35 0
-34 25 -35 0
34 -25 -35 0
34 25 35 0
-35 -26 -213 36 0
-35 -26 213 -36 0
-35 26 -214 36 0
-35 26 214 -36 0
35 -26 -215 36 0
35 -26 215 -36 0
35 26 -216 36 0
35 26 216 -36 0
-36 -27 -217 37 0
-36 -27 217 -37 0
-36 27 -218 37 0
-36 27 218 -37 0
36 -27 -219 37 0
36 -27 219 -37 0
36 27 -220 37 0
36 27 220 -37 0
-37 -28 -221 38 0
-37 -28 221 -38 0
-37 28 -222 38 0
-37 28 222 -38 0
37 -28 -223 38 0
37 -28 223 -38 0
37 28 -224 38 0
37 28 224 -38 0
-38 -29 -39 0
-38 29 39 0
38 -29 -39 0
38 29 39 0
-39 -30 -229 40 0
-39 -30 229 -40 0
-39 30 -230 40 0
-39 30 230 -40 0
39 -30 -231 40 0
39 -30 231 -40 0
39 30 -232 40 0
39 30 232 -40 0
-31 41 0
31 -41 0
-41 -32 42 0
-41 32 42 0
41 -32 42 0
41 32 -42 0
-42 -33 -43 0
-42 33 43 0
42 -33 43 0
42 33 -43 0
-43 -34 -243 44 0
-43 -34 243 -44 0
-43 34 -244 44 0
-43 34 244 -44 0
43 -34 -245 44 0
43 -34 245 -44 0
43 34 -246 44 0
43 34 246 -44 0
-44 -35 -45 0
-44 35 -45 0
44 -35 45 0
44 35 45 0
-45 -36 -251 46 0
-45 -36 251 -46 0
-45 36 -252 46 0
-45 36 252 -46 0
45 -36 -253 46 0
45 -36 253 -46 0
45 36 -254 46 0
45 36 254 -46 0
-46 -37 -255 47 0
-46 -37 255 -47 0
-46 37 -256 47 0
-46 37 256 -47 0
46 -37 -257 47 0
46 -37 257 -47 0
46 37 -258 47 0
46 37 258 -47 0
-47 -38 -48 0
-47 38 -48 0
47 -38 -48 0
47 38 48 0
-48 -39 49 0
-48 39 -49 0
48 -39 49 0
48 39 -49 0
-49 -40 -267 50 0
-49 -40 267 -50 0
-49 40 -268 50 0
-49 40 268 -50 0
49 -40 -269 50 0
49 -40 269 -50 0
49 40 -270 50 0
49 40 270 -50 0
-41 51 0
41 -51 0
-51 -42 -273 52 0
-51 -42 273 -52 0
-51 42 -274 52 0
-51 42 274 -52 0
51 -42 -275 52 0
51 -42 275 -52 0
51 42 -276 52 0
51 42 276 -52 0
-52 -43 53 0
-52 43 -53 0
52 -43 -53 0
52 43 -53 0
-53 -44 54 0
-53 44 -54 0
53 -44 -54 0
53 44 -54 0
-54 -45 -285 55 0
-54 -45 285 -55 0
-54 45 -286 55 0
-54 45 286 -55 0
54 -45 -287 55 0
54 -45 287 -55 0
54 45 -288 55 0
54 45 288 -55 0
-55 -46 -56 0
-55 46 -56 0
55 -46 -56 0
55 46 56 0
-56 -47 57 0
-56 47 -57 0
56 -47 -57 0
56 47 57 0
-57 -48 58 0
-57 48 -58 0
57 -48 -58 0
57 48 58 0
-58 -49 59 0
-58 49 -59 0
58 -49 59 0
58 49 59 0
-59 -50 60 0
-59 50 60 0
59 -50 60 0
59 50 -60 0
-51 61 0
51 -61 0
-61 -52 -62 0
-61 52 62 0
61 -52 -62 0
61 52 62 0
-62 -53 -315 63 0
-62 -53 315 -63 0
-62 53 -316 63 0
-62 53 316 -63 0
62 -53 -317 63 0
62 -53 317 -63 0
62 53 -318 63 0
62 53 318 -63 0
-63 -54 64 0
-63 54 -64 0
63 -54 64 0
63 54 64 0
-64 -55 -65 0
-64 55 -65 0
64 -55 -65 0
64 55 65 0
-65 -56 -66 0
-65 56 66 0
65 -56 -66 0
65 56 66 0
-66 -57 -331 67 0
-66 -57 331 -67 0
-66 57 -332 67 0
-66 57 332 -67 0
66 -57 -333 67 0
66 -57 333 -67 0
66 57 -334 67 0
66 57 334 -67 0
-67 -58 68 0
-67 58 -68 0
67 -58 68 0
67 58 -68 0
-68 -59 -69 0
-68 59 -69 0
68 -59 -69 0
68 59 69 0
-69 -60 -343 70 0
-69 -60 343 -70 0
-69 60 -344 70 0
-69 60 344 -70 0
69 -60 -345 70 0
69 -60 345 -70 0
69 60 -346 70 0
69 60 346 -70 0
-61 71 0
61 -71 0
-71 -62 72 0
-71 62 72 0
71 -62 -72 0
71 62 72 0
-72 -63 -73 0
-72 63 73 0
72 -63 -73 0
72 63 -73 0
-73 -64 -74 0
-73 64 74 0
73 -64 74 0
73 64 74 0
-74 -65 -361 75 0
-74 -65 361 -75 0
-74 65 -362 75 0
-74 65 362 -75 0
74 -65 -363 75 0
74 -65 363 -75 0
74 65 -364 75 0
74 65 364 -75 0
-75 -66 -76 0
-75 66 76 0
75 -66 -76 0
75 66 -76 0
-76 -67 77 0
-76 67 77 0
76 -67 -77 0
76 67 -77 0
-77 -68 -78 0
-77 68 -78 0
77 -68 -78 0
77 68 78 0
-78 -69 -377 79 0
-78 -69 377 -79 0
-78 69 -378 79 0
-78 69 378 -79 0
78 -69 -379 79 0
78 -69 379 -79 0
78 69 -380 79 0
78 69 380 -79 0
-79 -70 -80 0
-79 70 -80 0
79 -70 80 0
79 70 -80 0
-71 -81 0
71 81 0
-81 -72 -387 82 0
-81 -72 387 -82 0
-81 72 -388 82 0
-81 72 388 -82 0
81 -72 -389 82 0
81 -72 389 -82 0
81 72 -390 82 0
81 72 390 -82 0
-82 -73 -391 83 0
-82 -73 391 -83 0
-82 73 -392 83 0
-82 73 392 -83 0
82 -73 -393 83 0
82 -73 393 -83 0
82 73 -394 83 0
82 73 394 -83 0
-83 -74 84 0
-83 74 -84 0
83 -74 -84 0
83 74 84 0
-84 -75 -85 0
-84 75 85 0
84 -75 85 0
84 75 85 0
-85 -76 -403 86 0
-85 -76 403 -86 0
-85 76 -404 86 0
-85 76 404 -86 0
85 -76 -405 86 0
85 -76 405 -86 0
85 76 -406 86 0
85 76 406 -86 0
-86 -77 87 0
-86 77 -87 0
86 -77 -87 0
86 77 87 0
-87 -78 88 0
-87 78 88 0
87 -78 -88 0
87 78 88 0
-88 -79 89 0
-88 79 89 0
88 -79 89 0
88 79 -89 0
-89 -80 -90 0
-89 80 90 0
89 -80 -90 0
89 80 90 0
-81 -423 91 0
-81 423 -91 0
81 -424 91 0
81 424 -91 0
-91 -82 -92 0
-91 82 92 0
91 -82 92 0
91 82 92 0
-92 -83 -429 93 0
-92 -83 429 -93 0
-92 83 -430 93 0
-92 83 430 -93 0
92 -83 -431 93 0
92 -83 431 -93 0
92 83 -432 93 0
92 83 432 -93 0
-93 -84 -94 0
-93 84 94 0
93 -84 -94 0
93 84 94 0
-94 -85 95 0
-94 85 -95 0
94 -85 -95 0
94 85 95 0
-95 -86 96 0
-95 86 -96 0
95 -86 96 0
95 86 -96 0
-96 -87 -445 97 0
-96 -87 445 -97 0
-96 87 -446 97 0
-96 87 446 -97 0
96 -87 -447 97 0
96 -87 447 -97 0
96 87 -448 97 0
96 87 448 -97 0
-97 -88 -98 0
-97 88 -98 0
97 -88 98 0
97 88 98 0
-98 -89 99 0
-98 89 -99 0
98 -89 99 0
98 89 -99 0
-99 -90 100 0
-99 90 -100 0
99 -90 100 0
99 90 100 0
100 0
