data/benchmarks/bayes/75-10-7-q.gr
p tw 460 565
29 194
66 332
7 17
67 68
49 270
99 100
67 77
83 430
8 9
25 178
67 333
8 18
40 50
41 42
63 317
73 74
41 51
25 34
73 83
18 147
69 378
14 15
14 24
74 75
36 219
74 84
45 286
46 251
28 224
15 16
47 48
15 25
47 57
59 68
72 388
48 49
93 429
39 229
48 58
80 90
69 346
52 275
81 82
35 213
33 42
81 91
34 245
45 254
28 183
22 23
84 93
22 32
38 224
66 75
46 255
83 393
55 56
66 331
7 16
55 65
49 269
58 67
25 177
65 362
40 49
86 403
24 208
73 82
18 146
32 41
82 387
14 23
65 74
27 218
47 56
6 15
30 232
72 387
21 22
21 31
80 89
39 48
54 55
52 274
69 345
79 377
96 448
54 64
62 315
34 244
45 253
82 391
37 258
38 223
75 361
87 88
92 432
87 97
83 392
28 29
28 38
88 89
88 98
20 192
29 30
40 268
61 62
93 432
61 71
65 361
2 3
16 176
2 12
62 63
37 217
94 95
3 4
35 36
26 216
35 45
95 96
36 37
68 69
55 288
27 217
68 78
30 231
85 405
57 334
69 70
69 79
34 207
86 406
17 145
96 447
37 221
54 63
13 22
34 243
60 344
43 44
82 390
43 53
38 222
27 185
92 431
36 252
87 96
46 55
76 77
28 37
76 86
20 191
79 88
40 267
78 379
87 446
20 29
44 246
16 175
2 11
54 287
79 380
53 62
26 215
35 44
53 318
75 364
47 256
73 394
9 10
30 194
86 95
9 19
68 77
27 36
33 205
85 404
42 43
57 333
42 52
34 206
60 69
75 76
96 446
37 220
75 85
51 276
16 17
60 343
16 26
92 430
27 184
36 251
74 363
49 50
40 230
49 59
42 276
82 83
82 92
78 378
87 445
23 24
23 33
83 84
54 286
26 178
18 183
8 148
24 25
56 57
56 66
81 388
53 317
47 255
73 393
30 193
57 58
89 90
89 99
30 40
76 403
31 32
34 205
43 244
36 214
34 43
64 65
29 193
5 6
91 424
67 76
74 362
83 429
97 98
40 229
67 332
8 17
50 270
33 208
70 346
42 275
63 316
82 91
97 448
69 377
26 177
36 218
8 147
45 285
74 83
28 223
56 65
81 387
15 24
53 316
73 392
89 98
48 57
63 64
63 73
4 5
4 14
43 243
22 31
36 213
37 38
46 254
37 47
29 192
55 64
49 268
91 423
74 361
70 80
25 176
29 39
67 331
11 12
50 269
39 232
11 21
70 345
42 274
63 315
24 207
62 72
76 406
35 216
18 145
44 45
44 54
97 447
3 13
28 186
36 217
8 146
28 222
46 258
36 46
96 97
66 334
18 19
18 28
83 432
10 20
69 344
52 273
45 252
69 380
37 257
85 86
45 288
46 253
83 391
29 191
49 267
88 97
72 390
77 78
25 175
29 38
77 87
93 431
39 231
24 206
62 71
35 215
62 318
51 52
97 446
3 12
28 185
51 61
82 394
46 257
55 287
36 45
66 333
30 230
69 78
65 364
86 405
10 19
69 343
25 26
25 35
45 251
82 389
43 52
37 256
38 221
17 18
17 27
27 220
76 85
72 389
50 60
77 86
93 430
44 245
17 148
83 93
52 276
24 205
37 224
79 379
62 317
34 246
24 34
28 184
82 393
84 85
26 214
84 94
75 363
9 18
57 67
55 286
81 424
30 229
20 194
58 59
57 332
85 403
58 68
42 51
40 270
90 100
65 363
86 404
16 178
31 41
91 92
96 445
37 219
75 84
51 275
32 33
32 42
16 25
82 388
64 74
37 255
92 429
27 183
5 15
65 66
17 26
65 75
49 58
27 219
6 7
6 16
98 99
50 59
78 377
39 40
44 244
39 49
23 32
17 147
54 285
83 92
37 223
79 378
62 316
72 73
60 346
24 33
72 82
82 392
26 213
75 362
36 254
30 192
57 66
55 285
81 423
20 193
30 39
57 331
40 269
90 99
87 448
16 177
37 218
51 274
18 186
64 73
38 39
47 258
5 14
38 48
33 207
71 72
85 406
71 81
12 13
12 22
44 243
34 208
17 146
26 176
37 222
13 14
45 46
13 23
45 55
60 345
72 81
53 315
27 186
36 253
46 47
73 391
78 79
30 191
46 56
78 88
40 232
19 20
19 29
79 80
79 89
63 72
78 380
52 53
87 447
20 30
4 13
52 62
54 288
53 54
51 273
18 185
53 63
37 46
85 95
81 390
26 27
26 36
47 257
86 87
38 47
86 96
70 79
27 28
50 268
27 37
33 206
70 344
42 273
76 405
12 21
60 70
44 53
43 246
1 2
26 175
1 11
36 216
8 145
93 94
45 54
28 221
18 27
74 364
78 87
83 431
40 231
67 334
19 28
63 318
18 148
52 61
69 379
18 184
36 220
45 287
46 252
85 94
81 389
59 60
26 35
59 69
50 267
39 230
92 93
70 343
33 34
76 404
35 214
33 43
97 445
43 245
34 35
66 67
36 215
34 44
66 76
46 256
83 394
7 8
